c nIsolatedPIs 0
c maxPI 32
p cnf 245 640
c gate 33 6 -22 0
6 -33 0
-22 -33 0
-6 22 33 0
c gate 34 -2 18 0
-2 -34 0
18 -34 0
2 -18 34 0
c gate 35 -1 17 0
-1 -35 0
17 -35 0
1 -17 35 0
c gate 36 -34 -35 0
-34 -36 0
-35 -36 0
34 35 36 0
c gate 37 2 -18 0
2 -37 0
-18 -37 0
-2 18 37 0
c gate 38 3 -19 0
3 -38 0
-19 -38 0
-3 19 38 0
c gate 39 -37 -38 0
-37 -39 0
-38 -39 0
37 38 39 0
c gate 40 -36 39 0
-36 -40 0
39 -40 0
36 -39 40 0
c gate 41 -4 20 0
-4 -41 0
20 -41 0
4 -20 41 0
c gate 42 -3 19 0
-3 -42 0
19 -42 0
3 -19 42 0
c gate 43 -41 -42 0
-41 -43 0
-42 -43 0
41 42 43 0
c gate 44 -40 43 0
-40 -44 0
43 -44 0
40 -43 44 0
c gate 45 5 -21 0
5 -45 0
-21 -45 0
-5 21 45 0
c gate 46 4 -20 0
4 -46 0
-20 -46 0
-4 20 46 0
c gate 47 -45 -46 0
-45 -47 0
-46 -47 0
45 46 47 0
c gate 48 -44 47 0
-44 -48 0
47 -48 0
44 -47 48 0
c gate 49 -5 21 0
-5 -49 0
21 -49 0
5 -21 49 0
c gate 50 -6 -22 0
-6 -50 0
-22 -50 0
6 22 50 0
c gate 51 6 22 0
6 -51 0
22 -51 0
-6 -22 51 0
c gate 52 -50 -51 0
-50 -52 0
-51 -52 0
50 51 52 0
c gate 53 -49 -52 0
-49 -53 0
-52 -53 0
49 52 53 0
c gate 54 -48 53 0
-48 -54 0
53 -54 0
48 -53 54 0
c gate 55 -33 -54 0
-33 -55 0
-54 -55 0
33 54 55 0
c gate 56 -7 -23 0
-7 -56 0
-23 -56 0
7 23 56 0
c gate 57 7 23 0
7 -57 0
23 -57 0
-7 -23 57 0
c gate 58 -56 -57 0
-56 -58 0
-57 -58 0
56 57 58 0
c gate 59 -55 -58 0
-55 -59 0
-58 -59 0
55 58 59 0
c gate 60 54 58 0
54 -60 0
58 -60 0
-54 -58 60 0
c gate 61 -59 -60 0
-59 -61 0
-60 -61 0
59 60 61 0
c gate 62 8 24 0
8 -62 0
24 -62 0
-8 -24 62 0
c gate 63 -8 -24 0
-8 -63 0
-24 -63 0
8 24 63 0
c gate 64 -62 -63 0
-62 -64 0
-63 -64 0
62 63 64 0
c gate 65 4 20 0
4 -65 0
20 -65 0
-4 -20 65 0
c gate 66 2 18 0
2 -66 0
18 -66 0
-2 -18 66 0
c gate 67 1 17 0
1 -67 0
17 -67 0
-1 -17 67 0
c gate 68 3 19 0
3 -68 0
19 -68 0
-3 -19 68 0
c gate 69 -67 -68 0
-67 -69 0
-68 -69 0
67 68 69 0
c gate 70 -66 69 0
-66 -70 0
69 -70 0
66 -69 70 0
c gate 71 -41 -46 0
-41 -71 0
-46 -71 0
41 46 71 0
c gate 72 -3 -19 0
-3 -72 0
-19 -72 0
3 19 72 0
c gate 73 -71 -72 0
-71 -73 0
-72 -73 0
71 72 73 0
c gate 74 -70 73 0
-70 -74 0
73 -74 0
70 -73 74 0
c gate 75 -65 -74 0
-65 -75 0
-74 -75 0
65 74 75 0
c gate 76 -45 -49 0
-45 -76 0
-49 -76 0
45 49 76 0
c gate 77 -75 -76 0
-75 -77 0
-76 -77 0
75 76 77 0
c gate 78 -34 67 0
-34 -78 0
67 -78 0
34 -67 78 0
c gate 79 -2 78 0
-2 -79 0
78 -79 0
2 -78 79 0
c gate 80 -68 79 0
-68 -80 0
79 -80 0
68 -79 80 0
c gate 81 74 80 0
74 -81 0
80 -81 0
-74 -80 81 0
c gate 82 77 -81 0
77 -82 0
-81 -82 0
-77 81 82 0
c gate 83 5 21 0
5 -83 0
21 -83 0
-5 -21 83 0
c gate 84 52 -83 0
52 -84 0
-83 -84 0
-52 83 84 0
c gate 85 -82 84 0
-82 -85 0
84 -85 0
82 -84 85 0
c gate 86 -50 -85 0
-50 -86 0
-85 -86 0
50 85 86 0
c gate 87 58 -86 0
58 -87 0
-86 -87 0
-58 86 87 0
c gate 88 64 87 0
64 -88 0
87 -88 0
-64 -87 88 0
c gate 89 -85 -87 0
-85 -89 0
-87 -89 0
85 87 89 0
c gate 90 66 67 0
66 -90 0
67 -90 0
-66 -67 90 0
c gate 91 89 90 0
89 -91 0
90 -91 0
-89 -90 91 0
c gate 92 -88 -91 0
-88 -92 0
-91 -92 0
88 91 92 0
c gate 93 -16 -32 0
-16 -93 0
-32 -93 0
16 32 93 0
c gate 94 16 32 0
16 -94 0
32 -94 0
-16 -32 94 0
c gate 95 -93 -94 0
-93 -95 0
-94 -95 0
93 94 95 0
c gate 96 -15 -31 0
-15 -96 0
-31 -96 0
15 31 96 0
c gate 97 15 31 0
15 -97 0
31 -97 0
-15 -31 97 0
c gate 98 -96 -97 0
-96 -98 0
-97 -98 0
96 97 98 0
c gate 99 -14 -30 0
-14 -99 0
-30 -99 0
14 30 99 0
c gate 100 14 30 0
14 -100 0
30 -100 0
-14 -30 100 0
c gate 101 -99 -100 0
-99 -101 0
-100 -101 0
99 100 101 0
c gate 102 -13 -29 0
-13 -102 0
-29 -102 0
13 29 102 0
c gate 103 13 29 0
13 -103 0
29 -103 0
-13 -29 103 0
c gate 104 -12 -28 0
-12 -104 0
-28 -104 0
12 28 104 0
c gate 105 12 28 0
12 -105 0
28 -105 0
-12 -28 105 0
c gate 106 -11 -27 0
-11 -106 0
-27 -106 0
11 27 106 0
c gate 107 11 27 0
11 -107 0
27 -107 0
-11 -27 107 0
c gate 108 -10 -26 0
-10 -108 0
-26 -108 0
10 26 108 0
c gate 109 10 26 0
10 -109 0
26 -109 0
-10 -26 109 0
c gate 110 9 25 0
9 -110 0
25 -110 0
-9 -25 110 0
c gate 111 -109 -110 0
-109 -111 0
-110 -111 0
109 110 111 0
c gate 112 56 -62 0
56 -112 0
-62 -112 0
-56 62 112 0
c gate 113 -9 -25 0
-9 -113 0
-25 -113 0
9 25 113 0
c gate 114 -63 -113 0
-63 -114 0
-113 -114 0
63 113 114 0
c gate 115 -112 114 0
-112 -115 0
114 -115 0
112 -114 115 0
c gate 116 -88 115 0
-88 -116 0
115 -116 0
88 -115 116 0
c gate 117 111 -116 0
111 -117 0
-116 -117 0
-111 116 117 0
c gate 118 -108 -117 0
-108 -118 0
-117 -118 0
108 117 118 0
c gate 119 -107 -118 0
-107 -119 0
-118 -119 0
107 118 119 0
c gate 120 -106 -119 0
-106 -120 0
-119 -120 0
106 119 120 0
c gate 121 -105 -120 0
-105 -121 0
-120 -121 0
105 120 121 0
c gate 122 -104 -121 0
-104 -122 0
-121 -122 0
104 121 122 0
c gate 123 -103 -122 0
-103 -123 0
-122 -123 0
103 122 123 0
c gate 124 -102 -123 0
-102 -124 0
-123 -124 0
102 123 124 0
c gate 125 101 -124 0
101 -125 0
-124 -125 0
-101 124 125 0
c gate 126 -99 -125 0
-99 -126 0
-125 -126 0
99 125 126 0
c gate 127 98 -126 0
98 -127 0
-126 -127 0
-98 126 127 0
c gate 128 -96 -127 0
-96 -128 0
-127 -128 0
96 127 128 0
c gate 129 95 -128 0
95 -129 0
-128 -129 0
-95 128 129 0
c gate 130 -95 128 0
-95 -130 0
128 -130 0
95 -128 130 0
c gate 131 -129 -130 0
-129 -131 0
-130 -131 0
129 130 131 0
c gate 132 -103 -105 0
-103 -132 0
-105 -132 0
103 105 132 0
c gate 133 101 -132 0
101 -133 0
-132 -133 0
-101 132 133 0
c gate 134 -100 -133 0
-100 -134 0
-133 -134 0
100 133 134 0
c gate 135 -97 134 0
-97 -135 0
134 -135 0
97 -134 135 0
c gate 136 -95 135 0
-95 -136 0
135 -136 0
95 -135 136 0
c gate 137 95 -135 0
95 -137 0
-135 -137 0
-95 135 137 0
c gate 138 -136 -137 0
-136 -138 0
-137 -138 0
136 137 138 0
c gate 139 131 138 0
131 -139 0
138 -139 0
-131 -138 139 0
c gate 140 -131 -138 0
-131 -140 0
-138 -140 0
131 138 140 0
c gate 141 -139 -140 0
-139 -141 0
-140 -141 0
139 140 141 0
c gate 142 -98 126 0
-98 -142 0
126 -142 0
98 -126 142 0
c gate 143 -127 -142 0
-127 -143 0
-142 -143 0
127 142 143 0
c gate 144 98 -134 0
98 -144 0
-134 -144 0
-98 134 144 0
c gate 145 -98 134 0
-98 -145 0
134 -145 0
98 -134 145 0
c gate 146 -144 -145 0
-144 -146 0
-145 -146 0
144 145 146 0
c gate 147 -143 -146 0
-143 -147 0
-146 -147 0
143 146 147 0
c gate 148 143 146 0
143 -148 0
146 -148 0
-143 -146 148 0
c gate 149 -102 -103 0
-102 -149 0
-103 -149 0
102 103 149 0
c gate 150 105 149 0
105 -150 0
149 -150 0
-105 -149 150 0
c gate 151 122 -150 0
122 -151 0
-150 -151 0
-122 150 151 0
c gate 152 -148 -151 0
-148 -152 0
-151 -152 0
148 151 152 0
c gate 153 -147 152 0
-147 -153 0
152 -153 0
147 -152 153 0
c gate 154 141 153 0
141 -154 0
153 -154 0
-141 -153 154 0
c gate 155 92 154 0
92 -155 0
154 -155 0
-92 -154 155 0
c gate 156 111 -115 0
111 -156 0
-115 -156 0
-111 115 156 0
c gate 157 -104 -105 0
-104 -157 0
-105 -157 0
104 105 157 0
c gate 158 -106 -108 0
-106 -158 0
-108 -158 0
106 108 158 0
c gate 159 157 158 0
157 -159 0
158 -159 0
-157 -158 159 0
c gate 160 -156 159 0
-156 -160 0
159 -160 0
156 -159 160 0
c gate 161 -120 160 0
-120 -161 0
160 -161 0
120 -160 161 0
c gate 162 88 -161 0
88 -162 0
-161 -162 0
-88 161 162 0
c gate 163 154 -162 0
154 -163 0
-162 -163 0
-154 162 163 0
c gate 164 -101 132 0
-101 -164 0
132 -164 0
101 -132 164 0
c gate 165 -133 -164 0
-133 -165 0
-164 -165 0
133 164 165 0
c gate 166 -101 124 0
-101 -166 0
124 -166 0
101 -124 166 0
c gate 167 -125 -166 0
-125 -167 0
-166 -167 0
125 166 167 0
c gate 168 165 167 0
165 -168 0
167 -168 0
-165 -167 168 0
c gate 169 122 -149 0
122 -169 0
-149 -169 0
-122 149 169 0
c gate 170 -168 169 0
-168 -170 0
169 -170 0
168 -169 170 0
c gate 171 -165 -167 0
-165 -171 0
-167 -171 0
165 167 171 0
c gate 172 -170 -171 0
-170 -172 0
-171 -172 0
170 171 172 0
c gate 173 -147 172 0
-147 -173 0
172 -173 0
147 -172 173 0
c gate 174 -148 -173 0
-148 -174 0
-173 -174 0
148 173 174 0
c gate 175 -139 174 0
-139 -175 0
174 -175 0
139 -174 175 0
c gate 176 -140 -175 0
-140 -176 0
-175 -176 0
140 175 176 0
c gate 177 -163 176 0
-163 -177 0
176 -177 0
163 -176 177 0
c gate 178 -155 -177 0
-155 -178 0
-177 -178 0
155 177 178 0
c gate 179 -106 -107 0
-106 -179 0
-107 -179 0
106 107 179 0
c gate 180 -10 26 0
-10 -180 0
26 -180 0
10 -26 180 0
c gate 181 -9 25 0
-9 -181 0
25 -181 0
9 -25 181 0
c gate 182 8 -24 0
8 -182 0
-24 -182 0
-8 24 182 0
c gate 183 9 -25 0
9 -183 0
-25 -183 0
-9 25 183 0
c gate 184 -182 -183 0
-182 -184 0
-183 -184 0
182 183 184 0
c gate 185 7 -23 0
7 -185 0
-23 -185 0
-7 23 185 0
c gate 186 -64 185 0
-64 -186 0
185 -186 0
64 -185 186 0
c gate 187 -59 -186 0
-59 -187 0
-186 -187 0
59 186 187 0
c gate 188 -64 -187 0
-64 -188 0
-187 -188 0
64 187 188 0
c gate 189 184 -188 0
184 -189 0
-188 -189 0
-184 188 189 0
c gate 190 -181 -189 0
-181 -190 0
-189 -190 0
181 189 190 0
c gate 191 10 -26 0
10 -191 0
-26 -191 0
-10 26 191 0
c gate 192 -180 -191 0
-180 -192 0
-191 -192 0
180 191 192 0
c gate 193 -190 192 0
-190 -193 0
192 -193 0
190 -192 193 0
c gate 194 -180 -193 0
-180 -194 0
-193 -194 0
180 193 194 0
c gate 195 -179 -194 0
-179 -195 0
-194 -195 0
179 194 195 0
c gate 196 -101 -149 0
-101 -196 0
-149 -196 0
101 149 196 0
c gate 197 -95 -98 0
-95 -197 0
-98 -197 0
95 98 197 0
c gate 198 -157 197 0
-157 -198 0
197 -198 0
157 -197 198 0
c gate 199 196 198 0
196 -199 0
198 -199 0
-196 -198 199 0
c gate 200 195 199 0
195 -200 0
199 -200 0
-195 -199 200 0
c gate 201 -184 192 0
-184 -201 0
192 -201 0
184 -192 201 0
c gate 202 -191 -201 0
-191 -202 0
-201 -202 0
191 201 202 0
c gate 203 179 -202 0
179 -203 0
-202 -203 0
-179 202 203 0
c gate 204 179 194 0
179 -204 0
194 -204 0
-179 -194 204 0
c gate 205 -195 -204 0
-195 -205 0
-204 -205 0
195 204 205 0
c gate 206 -203 -205 0
-203 -206 0
-205 -206 0
203 205 206 0
c gate 207 184 -192 0
184 -207 0
-192 -207 0
-184 192 207 0
c gate 208 -201 -207 0
-201 -208 0
-207 -208 0
201 207 208 0
c gate 209 190 -192 0
190 -209 0
-192 -209 0
-190 192 209 0
c gate 210 -193 -209 0
-193 -210 0
-209 -210 0
193 209 210 0
c gate 211 -208 -210 0
-208 -211 0
-210 -211 0
208 210 211 0
c gate 212 208 210 0
208 -212 0
210 -212 0
-208 -210 212 0
c gate 213 95 -141 0
95 -213 0
-141 -213 0
-95 141 213 0
c gate 214 61 -213 0
61 -214 0
-213 -214 0
-61 213 214 0
c gate 215 -178 214 0
-178 -215 0
214 -215 0
178 -214 215 0
c gate 216 61 -135 0
61 -216 0
-135 -216 0
-61 135 216 0
c gate 217 129 216 0
129 -217 0
216 -217 0
-129 -216 217 0
c gate 218 -60 -217 0
-60 -218 0
-217 -218 0
60 217 218 0
c gate 219 -214 218 0
-214 -219 0
218 -219 0
214 -218 219 0
c gate 220 -215 -219 0
-215 -220 0
-219 -220 0
215 219 220 0
c gate 221 -59 -220 0
-59 -221 0
-220 -221 0
59 220 221 0
c gate 222 -188 -221 0
-188 -222 0
-221 -222 0
188 221 222 0
c gate 223 -181 -183 0
-181 -223 0
-183 -223 0
181 183 223 0
c gate 224 188 -223 0
188 -224 0
-223 -224 0
-188 223 224 0
c gate 225 -222 -224 0
-222 -225 0
-224 -225 0
222 224 225 0
c gate 226 -212 -225 0
-212 -226 0
-225 -226 0
212 225 226 0
c gate 227 -211 -226 0
-211 -227 0
-226 -227 0
211 226 227 0
c gate 228 -206 227 0
-206 -228 0
227 -228 0
206 -227 228 0
c gate 229 -194 203 0
-194 -229 0
203 -229 0
194 -203 229 0
c gate 230 -195 -229 0
-195 -230 0
-229 -230 0
195 229 230 0
c gate 231 -228 230 0
-228 -231 0
230 -231 0
228 -230 231 0
c gate 232 -200 -231 0
-200 -232 0
-231 -232 0
200 231 232 0
c gate 233 -178 232 0
-178 -233 0
232 -233 0
178 -232 233 0
c gate 234 -79 89 0
-79 -234 0
89 -234 0
79 -89 234 0
c gate 235 -161 -234 0
-161 -235 0
-234 -235 0
161 234 235 0
c gate 236 154 -235 0
154 -236 0
-235 -236 0
-154 235 236 0
c gate 237 176 -236 0
176 -237 0
-236 -237 0
-176 236 237 0
c gate 238 -232 -237 0
-232 -238 0
-237 -238 0
232 237 238 0
c gate 239 -233 -238 0
-233 -239 0
-238 -239 0
233 238 239 0
c gate 240 -54 239 0
-54 -240 0
239 -240 0
54 -239 240 0
c gate 241 54 -232 0
54 -241 0
-232 -241 0
-54 232 241 0
c gate 242 -240 -241 0
-240 -242 0
-241 -242 0
240 241 242 0
c gate 243 61 -242 0
61 -243 0
-242 -243 0
-61 242 243 0
c gate 244 -61 242 0
-61 -244 0
242 -244 0
61 -242 244 0
c gate 245 -243 -244 0
-243 -245 0
-244 -245 0
243 244 245 0
c PO
-245 0
